  8	56
 16
  0	  1	 27	 16	 83	 19	 72	 57	 22	 75	 45	 39	101	 95	 78	113	
 10
  0	 23	 55	 79	 24	111	 80	 31	 87	113	
 26
  0	 29	 34	 85	 42	  2	 98	 90	 14	 26	 58	 70	 44	 36	 37	100	 11	 93	 10	 67	 33	 92	 66	 82	 89	113	
 12
  0	 30	  3	 15	 86	 32	 46	 71	102	 59	 88	113	
 14
  0	  8	 50	 64	 21	 48	106	  9	 77	104	 43	 99	 65	113	
 14
  0	 18	 53	 74	 38	 52	108	 94	109	 47	  5	103	 61	113	
 20
  0	 40	 41	 12	 51	 68	 96	 49	107	 17	105	  7	 97	 73	  6	 28	 84	 62	 63	113	
 16
  0	 25	 54	 56	 13	 81	 35	 69	  4	112	110	 20	 60	 76	 91	113	
